
Gurobi 9.0.0 (linux64) logging started Wed 05 Feb 2020 06:33:38 PM CET

Changed value of parameter LogFile to gurobi-jss.log_7_3
   Prev:   Default: 

Gurobi 9.0.0 (linux64) logging started Wed Feb  5 18:36:14 2020

Changed value of parameter LogFile to gurobi-jss.log_7_3
   Prev:   Default: 
